column=6;
row=6;
max=4;
left=[0, 0, 1, 4, 3, 3];
right=[0, 3, 0, 1, 1, 2];
top=[0, 4, 1, 3, 3, 0];
bottom=[3, 3, 0, 1, 4, 2];
Board=[|2,0,0,0,3,0|1,0,2,0,0,0|0,1,0,4,0,3|4,2,3,0,1,0|3,0,0,2,4,1|0,3,4,1,0,2|]